(set-logic SLHV)
(declare-hvar emp IntHeap)
(declare-locvar nil IntLoc)
(declare-datatype pt_record_0 ((Pt_R_0 (loc IntLoc))))
(declare-datatype pt_record_1 ((Pt_R_1 (data Int))))
(declare-const d20 Int)
(declare-locvar l37 IntLoc)
(declare-hvar ah5 IntHeap)
(declare-hvar AH_9 IntHeap)
(declare-const d19 Int)
(declare-locvar l35 IntLoc)
(declare-hvar h27 IntHeap)
(declare-hvar H_9 IntHeap)
(declare-locvar l36 IntLoc)
(declare-const loc_9 Int)
(declare-const $r_main0_9 Int)
(declare-const $r_main0_8 Int)
(declare-const $i7_free_data0_9 Int)
(declare-const $i7_free_data0_8 Int)
(declare-const $i6_free_data0_9 Int)
(declare-const $i6_free_data0_8 Int)
(declare-const $i5_free_data0_9 Int)
(declare-const $i5_free_data0_8 Int)
(declare-locvar $p9_free_data0_9 IntLoc)
(declare-locvar $p9_free_data0_8 IntLoc)
(declare-locvar $p9_alloc_data0_9 IntLoc)
(declare-locvar $p9_alloc_data0_8 IntLoc)
(declare-locvar $p8_free_data0_9 IntLoc)
(declare-locvar $p8_free_data0_8 IntLoc)
(declare-locvar $p8_alloc_data0_9 IntLoc)
(declare-locvar $p8_alloc_data0_8 IntLoc)
(declare-locvar $p7_alloc_data0_9 IntLoc)
(declare-locvar $p7_alloc_data0_8 IntLoc)
(declare-locvar $p6_alloc_data0_9 IntLoc)
(declare-locvar $p6_alloc_data0_8 IntLoc)
(declare-locvar $p5_alloc_data0_9 IntLoc)
(declare-locvar $p5_alloc_data0_8 IntLoc)
(declare-locvar $p4_free_data0_9 IntLoc)
(declare-locvar $p4_free_data0_8 IntLoc)
(declare-locvar $p4_alloc_data0_9 IntLoc)
(declare-locvar $p4_alloc_data0_8 IntLoc)
(declare-locvar $p3_free_data0_9 IntLoc)
(declare-locvar $p3_free_data0_8 IntLoc)
(declare-locvar $p3_alloc_data0_9 IntLoc)
(declare-locvar $p3_alloc_data0_8 IntLoc)
(declare-locvar $p2_free_data0_9 IntLoc)
(declare-locvar $p2_free_data0_8 IntLoc)
(declare-locvar $p2_alloc_data0_9 IntLoc)
(declare-locvar $p2_alloc_data0_8 IntLoc)
(declare-locvar $p1_free_data0_9 IntLoc)
(declare-locvar $p1_free_data0_8 IntLoc)
(declare-locvar $p1_alloc_data0_9 IntLoc)
(declare-locvar $p1_alloc_data0_8 IntLoc)
(declare-locvar $p11_free_data0_9 IntLoc)
(declare-locvar $p11_free_data0_8 IntLoc)
(declare-locvar $p10_free_data0_9 IntLoc)
(declare-locvar $p10_free_data0_8 IntLoc)
(declare-locvar $p10_alloc_data0_9 IntLoc)
(declare-locvar $p10_alloc_data0_8 IntLoc)
(declare-locvar $p0_main0_9 IntLoc)
(declare-locvar $p0_main0_8 IntLoc)
(declare-locvar $p0_free_data0_9 IntLoc)
(declare-locvar $p0_free_data0_8 IntLoc)
(declare-locvar $p0_alloc_data0_9 IntLoc)
(declare-locvar $p0_alloc_data0_8 IntLoc)
(declare-locvar $0.ref_9 IntLoc)
(declare-locvar $0.ref_8 IntLoc)
(declare-const loc_8 Int)
(declare-const $i7_free_data0_7 Int)
(declare-const $i6_free_data0_7 Int)
(declare-const $i5_free_data0_7 Int)
(declare-locvar $p9_free_data0_7 IntLoc)
(declare-locvar $p9_alloc_data0_7 IntLoc)
(declare-locvar $p8_free_data0_7 IntLoc)
(declare-locvar $p8_alloc_data0_7 IntLoc)
(declare-locvar $p7_alloc_data0_7 IntLoc)
(declare-locvar $p6_alloc_data0_7 IntLoc)
(declare-locvar $p5_alloc_data0_7 IntLoc)
(declare-locvar $p4_free_data0_7 IntLoc)
(declare-locvar $p4_alloc_data0_7 IntLoc)
(declare-locvar $p3_free_data0_7 IntLoc)
(declare-locvar $p3_alloc_data0_7 IntLoc)
(declare-locvar $p2_free_data0_7 IntLoc)
(declare-locvar $p2_alloc_data0_7 IntLoc)
(declare-locvar $p1_free_data0_7 IntLoc)
(declare-locvar $p1_alloc_data0_7 IntLoc)
(declare-locvar $p11_free_data0_7 IntLoc)
(declare-locvar $p10_free_data0_7 IntLoc)
(declare-locvar $p10_alloc_data0_7 IntLoc)
(declare-locvar $p0_main0_7 IntLoc)
(declare-locvar $p0_free_data0_7 IntLoc)
(declare-locvar $p0_alloc_data0_7 IntLoc)
(declare-locvar $0.ref_7 IntLoc)
(declare-const $r_main01_8 Int)
(declare-const loc_7 Int)
(declare-const $r_main0_7 Int)
(declare-const $r_main0_6 Int)
(declare-const $i7_free_data0_6 Int)
(declare-const $i6_free_data0_6 Int)
(declare-const $i5_free_data0_6 Int)
(declare-locvar $p9_free_data0_6 IntLoc)
(declare-locvar $p9_alloc_data0_6 IntLoc)
(declare-locvar $p8_free_data0_6 IntLoc)
(declare-locvar $p8_alloc_data0_6 IntLoc)
(declare-locvar $p7_alloc_data0_6 IntLoc)
(declare-locvar $p6_alloc_data0_6 IntLoc)
(declare-locvar $p5_alloc_data0_6 IntLoc)
(declare-locvar $p4_free_data0_6 IntLoc)
(declare-locvar $p4_alloc_data0_6 IntLoc)
(declare-locvar $p3_free_data0_6 IntLoc)
(declare-locvar $p3_alloc_data0_6 IntLoc)
(declare-locvar $p2_free_data0_6 IntLoc)
(declare-locvar $p2_alloc_data0_6 IntLoc)
(declare-locvar $p1_free_data0_6 IntLoc)
(declare-locvar $p1_alloc_data0_6 IntLoc)
(declare-locvar $p10_alloc_data0_6 IntLoc)
(declare-locvar $p0_main0_6 IntLoc)
(declare-locvar $p0_free_data0_6 IntLoc)
(declare-locvar $p0_alloc_data0_6 IntLoc)
(declare-locvar $0.ref_6 IntLoc)
(declare-hvar H11_7 IntHeap)
(declare-hvar H_7 IntHeap)
(declare-locvar $p11_free_data01_7 IntLoc)
(declare-locvar $p10_free_data01_7 IntLoc)
(declare-hvar h25_7 IntHeap)
(declare-locvar l33_7 IntLoc)
(declare-hvar H10_7 IntHeap)
(declare-hvar h23_7 IntHeap)
(declare-locvar l31_7 IntLoc)
(declare-hvar H_6 IntHeap)
(declare-const loc_6 Int)
(declare-const $r_main0_5 Int)
(declare-const $i7_free_data0_5 Int)
(declare-const $i6_free_data0_5 Int)
(declare-const $i5_free_data0_5 Int)
(declare-locvar $p9_free_data0_5 IntLoc)
(declare-locvar $p9_alloc_data0_5 IntLoc)
(declare-locvar $p8_free_data0_5 IntLoc)
(declare-locvar $p8_alloc_data0_5 IntLoc)
(declare-locvar $p7_alloc_data0_5 IntLoc)
(declare-locvar $p6_alloc_data0_5 IntLoc)
(declare-locvar $p5_alloc_data0_5 IntLoc)
(declare-locvar $p4_free_data0_5 IntLoc)
(declare-locvar $p4_alloc_data0_5 IntLoc)
(declare-locvar $p3_free_data0_5 IntLoc)
(declare-locvar $p3_alloc_data0_5 IntLoc)
(declare-locvar $p2_free_data0_5 IntLoc)
(declare-locvar $p2_alloc_data0_5 IntLoc)
(declare-locvar $p1_free_data0_5 IntLoc)
(declare-locvar $p1_alloc_data0_5 IntLoc)
(declare-locvar $p11_free_data0_6 IntLoc)
(declare-locvar $p11_free_data0_5 IntLoc)
(declare-locvar $p10_free_data0_6 IntLoc)
(declare-locvar $p10_free_data0_5 IntLoc)
(declare-locvar $p10_alloc_data0_5 IntLoc)
(declare-locvar $p0_main0_5 IntLoc)
(declare-locvar $p0_free_data0_5 IntLoc)
(declare-locvar $p0_alloc_data0_5 IntLoc)
(declare-locvar $0.ref_5 IntLoc)
(declare-const loc_5 Int)
(declare-hvar H9_6 IntHeap)
(declare-hvar AH5_6 IntHeap)
(declare-hvar AH_6 IntHeap)
(declare-locvar $p9_free_data01_6 IntLoc)
(declare-locvar $p8_free_data01_6 IntLoc)
(declare-hvar h22_6 IntHeap)
(declare-locvar l30_6 IntLoc)
(declare-const d17_6 Int)
(declare-hvar H8_6 IntHeap)
(declare-const d15_6 Int)
(declare-locvar l29_6 IntLoc)
(declare-const d16_6 Int)
(declare-locvar l25_6 IntLoc)
(declare-locvar l28_6 IntLoc)
(declare-locvar l27_6 IntLoc)
(declare-locvar l26_6 IntLoc)
(declare-hvar ah3 IntHeap)
(declare-hvar AH4_6 IntHeap)
(declare-hvar h21_6 IntHeap)
(declare-locvar l24_6 IntLoc)
(declare-const d13_6 Int)
(declare-hvar H_5 IntHeap)
(declare-const d11_6 Int)
(declare-locvar l23_6 IntLoc)
(declare-const d12_6 Int)
(declare-locvar l19_6 IntLoc)
(declare-locvar l22_6 IntLoc)
(declare-locvar l21_6 IntLoc)
(declare-locvar l20_6 IntLoc)
(declare-hvar ah1 IntHeap)
(declare-hvar AH_5 IntHeap)
(declare-const $r_main0_4 Int)
(declare-locvar $p9_free_data0_4 IntLoc)
(declare-locvar $p9_alloc_data0_4 IntLoc)
(declare-locvar $p8_free_data0_4 IntLoc)
(declare-locvar $p8_alloc_data0_4 IntLoc)
(declare-locvar $p7_alloc_data0_4 IntLoc)
(declare-locvar $p6_alloc_data0_4 IntLoc)
(declare-locvar $p5_alloc_data0_4 IntLoc)
(declare-locvar $p4_alloc_data0_4 IntLoc)
(declare-locvar $p3_alloc_data0_4 IntLoc)
(declare-locvar $p2_alloc_data0_4 IntLoc)
(declare-locvar $p1_alloc_data0_4 IntLoc)
(declare-locvar $p11_free_data0_4 IntLoc)
(declare-locvar $p10_free_data0_4 IntLoc)
(declare-locvar $p10_alloc_data0_4 IntLoc)
(declare-locvar $p0_main0_4 IntLoc)
(declare-locvar $p0_free_data0_4 IntLoc)
(declare-locvar $p0_alloc_data0_4 IntLoc)
(declare-locvar $0.ref_4 IntLoc)
(declare-locvar $p4_free_data01_5 IntLoc)
(declare-locvar $p3_free_data01_5 IntLoc)
(declare-locvar $p2_free_data01_5 IntLoc)
(declare-locvar $p1_free_data01_5 IntLoc)
(declare-const $i7_free_data01_5 Int)
(declare-const $i6_free_data01_5 Int)
(declare-const $i5_free_data01_5 Int)
(declare-const d9_5 Int)
(declare-hvar h19_5 IntHeap)
(declare-hvar H_4 IntHeap)
(declare-const d7_5 Int)
(declare-hvar h17_5 IntHeap)
(declare-locvar l13_5 IntLoc)
(declare-hvar h15_5 IntHeap)
(declare-locvar l11_5 IntLoc)
(declare-hvar h13_5 IntHeap)
(declare-const loc_4 Int)
(declare-const $r_main0_3 Int)
(declare-const $i7_free_data0_4 Int)
(declare-const $i7_free_data0_3 Int)
(declare-const $i6_free_data0_4 Int)
(declare-const $i6_free_data0_3 Int)
(declare-const $i5_free_data0_4 Int)
(declare-const $i5_free_data0_3 Int)
(declare-locvar $p9_free_data0_3 IntLoc)
(declare-locvar $p9_alloc_data0_3 IntLoc)
(declare-locvar $p8_free_data0_3 IntLoc)
(declare-locvar $p8_alloc_data0_3 IntLoc)
(declare-locvar $p7_alloc_data0_3 IntLoc)
(declare-locvar $p6_alloc_data0_3 IntLoc)
(declare-locvar $p5_alloc_data0_3 IntLoc)
(declare-locvar $p4_free_data0_4 IntLoc)
(declare-locvar $p4_free_data0_3 IntLoc)
(declare-locvar $p4_alloc_data0_3 IntLoc)
(declare-locvar $p3_free_data0_4 IntLoc)
(declare-locvar $p3_free_data0_3 IntLoc)
(declare-locvar $p3_alloc_data0_3 IntLoc)
(declare-locvar $p2_free_data0_4 IntLoc)
(declare-locvar $p2_free_data0_3 IntLoc)
(declare-locvar $p2_alloc_data0_3 IntLoc)
(declare-locvar $p1_free_data0_4 IntLoc)
(declare-locvar $p1_free_data0_3 IntLoc)
(declare-locvar $p1_alloc_data0_3 IntLoc)
(declare-locvar $p11_free_data0_3 IntLoc)
(declare-locvar $p10_free_data0_3 IntLoc)
(declare-locvar $p10_alloc_data0_3 IntLoc)
(declare-locvar $p0_main0_3 IntLoc)
(declare-locvar $p0_alloc_data0_3 IntLoc)
(declare-locvar $0.ref_3 IntLoc)
(declare-locvar $p0_free_data01_4 IntLoc)
(declare-const loc_3 Int)
(declare-const $r_main0_2 Int)
(declare-const $i7_free_data0_2 Int)
(declare-const $i6_free_data0_2 Int)
(declare-const $i5_free_data0_2 Int)
(declare-locvar $p9_free_data0_2 IntLoc)
(declare-locvar $p8_free_data0_2 IntLoc)
(declare-locvar $p4_free_data0_2 IntLoc)
(declare-locvar $p3_free_data0_2 IntLoc)
(declare-locvar $p2_free_data0_2 IntLoc)
(declare-locvar $p1_free_data0_2 IntLoc)
(declare-locvar $p11_free_data0_2 IntLoc)
(declare-locvar $p10_free_data0_2 IntLoc)
(declare-locvar $p0_main0_2 IntLoc)
(declare-locvar $p0_free_data0_3 IntLoc)
(declare-locvar $p0_free_data0_2 IntLoc)
(declare-locvar $p0_alloc_data0_2 IntLoc)
(declare-locvar $0.ref_2 IntLoc)
(declare-hvar H6_3 IntHeap)
(declare-hvar H_3 IntHeap)
(declare-hvar AH2_3 IntHeap)
(declare-hvar AH_3 IntHeap)
(declare-locvar $p9_alloc_data01_3 IntLoc)
(declare-locvar $p8_alloc_data01_3 IntLoc)
(declare-locvar $p7_alloc_data01_3 IntLoc)
(declare-locvar $p6_alloc_data01_3 IntLoc)
(declare-locvar $p5_alloc_data01_3 IntLoc)
(declare-locvar $p4_alloc_data01_3 IntLoc)
(declare-locvar $p3_alloc_data01_3 IntLoc)
(declare-locvar $p2_alloc_data01_3 IntLoc)
(declare-locvar $p1_alloc_data01_3 IntLoc)
(declare-locvar $p10_alloc_data01_3 IntLoc)
(declare-hvar h11_3 IntHeap)
(declare-const d5_3 Int)
(declare-hvar H5_3 IntHeap)
(declare-locvar l9_3 IntLoc)
(declare-hvar h9_3 IntHeap)
(declare-hvar h7_3 IntHeap)
(declare-const d3_3 Int)
(declare-hvar H4_3 IntHeap)
(declare-locvar l7_3 IntLoc)
(declare-hvar h5_3 IntHeap)
(declare-hvar h3_3 IntHeap)
(declare-locvar l5_3 IntLoc)
(declare-hvar H3_3 IntHeap)
(declare-locvar l4_3 IntLoc)
(declare-hvar AH1_3 IntHeap)
(declare-const d2_3 Int)
(declare-hvar H2_3 IntHeap)
(declare-hvar h1_3 IntHeap)
(declare-locvar l2_3 IntLoc)
(declare-hvar H1_3 IntHeap)
(declare-locvar l1_3 IntLoc)
(declare-hvar AH_2 IntHeap)
(declare-const d1_3 Int)
(declare-hvar H_2 IntHeap)
(declare-const loc_2 Int)
(declare-const $r_main0_1 Int)
(declare-const $i7_free_data0_1 Int)
(declare-const $i6_free_data0_1 Int)
(declare-const $i5_free_data0_1 Int)
(declare-locvar $p9_free_data0_1 IntLoc)
(declare-locvar $p9_alloc_data0_2 IntLoc)
(declare-locvar $p9_alloc_data0_1 IntLoc)
(declare-locvar $p8_free_data0_1 IntLoc)
(declare-locvar $p8_alloc_data0_2 IntLoc)
(declare-locvar $p8_alloc_data0_1 IntLoc)
(declare-locvar $p7_alloc_data0_2 IntLoc)
(declare-locvar $p7_alloc_data0_1 IntLoc)
(declare-locvar $p6_alloc_data0_2 IntLoc)
(declare-locvar $p6_alloc_data0_1 IntLoc)
(declare-locvar $p5_alloc_data0_2 IntLoc)
(declare-locvar $p5_alloc_data0_1 IntLoc)
(declare-locvar $p4_free_data0_1 IntLoc)
(declare-locvar $p4_alloc_data0_2 IntLoc)
(declare-locvar $p4_alloc_data0_1 IntLoc)
(declare-locvar $p3_free_data0_1 IntLoc)
(declare-locvar $p3_alloc_data0_2 IntLoc)
(declare-locvar $p3_alloc_data0_1 IntLoc)
(declare-locvar $p2_free_data0_1 IntLoc)
(declare-locvar $p2_alloc_data0_2 IntLoc)
(declare-locvar $p2_alloc_data0_1 IntLoc)
(declare-locvar $p1_free_data0_1 IntLoc)
(declare-locvar $p1_alloc_data0_2 IntLoc)
(declare-locvar $p1_alloc_data0_1 IntLoc)
(declare-locvar $p11_free_data0_1 IntLoc)
(declare-locvar $p10_free_data0_1 IntLoc)
(declare-locvar $p10_alloc_data0_2 IntLoc)
(declare-locvar $p10_alloc_data0_1 IntLoc)
(declare-locvar $p0_main0_1 IntLoc)
(declare-locvar $p0_free_data0_1 IntLoc)
(declare-locvar $0.ref_1 IntLoc)
(declare-locvar $p0_alloc_data01_2 IntLoc)
(declare-const loc_1 Int)
(declare-const $r_main0_0 Int)
(declare-const $i7_free_data0_0 Int)
(declare-const $i6_free_data0_0 Int)
(declare-const $i5_free_data0_0 Int)
(declare-locvar $p9_free_data0_0 IntLoc)
(declare-locvar $p9_alloc_data0_0 IntLoc)
(declare-locvar $p8_free_data0_0 IntLoc)
(declare-locvar $p8_alloc_data0_0 IntLoc)
(declare-locvar $p7_alloc_data0_0 IntLoc)
(declare-locvar $p6_alloc_data0_0 IntLoc)
(declare-locvar $p5_alloc_data0_0 IntLoc)
(declare-locvar $p4_free_data0_0 IntLoc)
(declare-locvar $p4_alloc_data0_0 IntLoc)
(declare-locvar $p3_free_data0_0 IntLoc)
(declare-locvar $p3_alloc_data0_0 IntLoc)
(declare-locvar $p2_free_data0_0 IntLoc)
(declare-locvar $p2_alloc_data0_0 IntLoc)
(declare-locvar $p1_free_data0_0 IntLoc)
(declare-locvar $p1_alloc_data0_0 IntLoc)
(declare-locvar $p11_free_data0_0 IntLoc)
(declare-locvar $p10_free_data0_0 IntLoc)
(declare-locvar $p10_alloc_data0_0 IntLoc)
(declare-locvar $p0_free_data0_0 IntLoc)
(declare-locvar $p0_alloc_data0_1 IntLoc)
(declare-locvar $p0_alloc_data0_0 IntLoc)
(declare-locvar $0.ref_0 IntLoc)
(declare-hvar H7_1 IntHeap)
(declare-hvar H_1 IntHeap)
(declare-hvar AH3_1 IntHeap)
(declare-hvar AH_1 IntHeap)
(declare-locvar $p0_main01_1 IntLoc)
(declare-locvar l15_1 IntLoc)
(declare-hvar AH_0 IntHeap)
(declare-locvar l17_1 IntLoc)
(declare-locvar l18_1 IntLoc)
(declare-locvar l16_1 IntLoc)
(declare-hvar H_0 IntHeap)
(declare-const loc_0 Int)
(assert
 (let (($x2411 (= AH_9 (uplus ah5 (pt l37 (Pt_R_1 d20))))))
 (let (($x2403 (or (= H_9 (uplus h27 (pt l35 (Pt_R_0 l36)))) (= H_9 (uplus h27 (pt l35 (Pt_R_1 d19)))))))
 (let (($x2116 (= loc_9 7)))
 (let (($x2109 (= $r_main0_8 $r_main0_9)))
 (let (($x2106 (= $i7_free_data0_8 $i7_free_data0_9)))
 (let (($x2103 (= $i6_free_data0_8 $i6_free_data0_9)))
 (let (($x2107 (and (and (and true (= $i5_free_data0_8 $i5_free_data0_9)) $x2103) $x2106)))
 (let (($x2110 (and $x2107 $x2109)))
 (let (($x2096 (= $p9_free_data0_8 $p9_free_data0_9)))
 (let (($x2093 (= $p9_alloc_data0_8 $p9_alloc_data0_9)))
 (let (($x2090 (= $p8_free_data0_8 $p8_free_data0_9)))
 (let (($x2087 (= $p8_alloc_data0_8 $p8_alloc_data0_9)))
 (let (($x2084 (= $p7_alloc_data0_8 $p7_alloc_data0_9)))
 (let (($x2081 (= $p6_alloc_data0_8 $p6_alloc_data0_9)))
 (let (($x2078 (= $p5_alloc_data0_8 $p5_alloc_data0_9)))
 (let (($x2075 (= $p4_free_data0_8 $p4_free_data0_9)))
 (let (($x2072 (= $p4_alloc_data0_8 $p4_alloc_data0_9)))
 (let (($x2069 (= $p3_free_data0_8 $p3_free_data0_9)))
 (let (($x2066 (= $p3_alloc_data0_8 $p3_alloc_data0_9)))
 (let (($x2063 (= $p2_free_data0_8 $p2_free_data0_9)))
 (let (($x2060 (= $p2_alloc_data0_8 $p2_alloc_data0_9)))
 (let (($x2057 (= $p1_free_data0_8 $p1_free_data0_9)))
 (let (($x2054 (= $p1_alloc_data0_8 $p1_alloc_data0_9)))
 (let (($x2051 (= $p11_free_data0_8 $p11_free_data0_9)))
 (let (($x2048 (= $p10_free_data0_8 $p10_free_data0_9)))
 (let (($x2045 (= $p10_alloc_data0_8 $p10_alloc_data0_9)))
 (let (($x2042 (= $p0_main0_8 $p0_main0_9)))
 (let (($x2039 (= $p0_free_data0_8 $p0_free_data0_9)))
 (let (($x2036 (= $p0_alloc_data0_8 $p0_alloc_data0_9)))
 (let (($x2043 (and (and (and (and true (= $0.ref_8 $0.ref_9)) $x2036) $x2039) $x2042)))
 (let (($x2061 (and (and (and (and (and (and $x2043 $x2045) $x2048) $x2051) $x2054) $x2057) $x2060)))
 (let (($x2079 (and (and (and (and (and (and $x2061 $x2063) $x2066) $x2069) $x2072) $x2075) $x2078)))
 (let (($x2097 (and (and (and (and (and (and $x2079 $x2081) $x2084) $x2087) $x2090) $x2093) $x2096)))
 (let (($x1771 (and true true)))
 (let (($x2026 (= loc_8 7)))
 (let (($x2018 (= $i7_free_data0_7 $i7_free_data0_8)))
 (let (($x2015 (= $i6_free_data0_7 $i6_free_data0_8)))
 (let (($x2019 (and (and (and true (= $i5_free_data0_7 $i5_free_data0_8)) $x2015) $x2018)))
 (let (($x2008 (= $p9_free_data0_7 $p9_free_data0_8)))
 (let (($x2005 (= $p9_alloc_data0_7 $p9_alloc_data0_8)))
 (let (($x2002 (= $p8_free_data0_7 $p8_free_data0_8)))
 (let (($x1999 (= $p8_alloc_data0_7 $p8_alloc_data0_8)))
 (let (($x1996 (= $p7_alloc_data0_7 $p7_alloc_data0_8)))
 (let (($x1993 (= $p6_alloc_data0_7 $p6_alloc_data0_8)))
 (let (($x1990 (= $p5_alloc_data0_7 $p5_alloc_data0_8)))
 (let (($x1987 (= $p4_free_data0_7 $p4_free_data0_8)))
 (let (($x1984 (= $p4_alloc_data0_7 $p4_alloc_data0_8)))
 (let (($x1981 (= $p3_free_data0_7 $p3_free_data0_8)))
 (let (($x1978 (= $p3_alloc_data0_7 $p3_alloc_data0_8)))
 (let (($x1975 (= $p2_free_data0_7 $p2_free_data0_8)))
 (let (($x1972 (= $p2_alloc_data0_7 $p2_alloc_data0_8)))
 (let (($x1969 (= $p1_free_data0_7 $p1_free_data0_8)))
 (let (($x1966 (= $p1_alloc_data0_7 $p1_alloc_data0_8)))
 (let (($x1963 (= $p11_free_data0_7 $p11_free_data0_8)))
 (let (($x1960 (= $p10_free_data0_7 $p10_free_data0_8)))
 (let (($x1957 (= $p10_alloc_data0_7 $p10_alloc_data0_8)))
 (let (($x1954 (= $p0_main0_7 $p0_main0_8)))
 (let (($x1951 (= $p0_free_data0_7 $p0_free_data0_8)))
 (let (($x1948 (= $p0_alloc_data0_7 $p0_alloc_data0_8)))
 (let (($x1955 (and (and (and (and true (= $0.ref_7 $0.ref_8)) $x1948) $x1951) $x1954)))
 (let (($x1973 (and (and (and (and (and (and $x1955 $x1957) $x1960) $x1963) $x1966) $x1969) $x1972)))
 (let (($x1991 (and (and (and (and (and (and $x1973 $x1975) $x1978) $x1981) $x1984) $x1987) $x1990)))
 (let (($x2009 (and (and (and (and (and (and $x1991 $x1993) $x1996) $x1999) $x2002) $x2005) $x2008)))
 (let (($x1941 (= $r_main0_8 $r_main01_8)))
 (let (($x1942 (and $x1941 true)))
 (let (($x1938 (= $r_main01_8 0)))
 (let (($x1933 (= loc_7 6)))
 (let (($x1928 (= $r_main0_6 $r_main0_7)))
 (let (($x1925 (= $i7_free_data0_6 $i7_free_data0_7)))
 (let (($x1922 (= $i6_free_data0_6 $i6_free_data0_7)))
 (let (($x1926 (and (and (and true (= $i5_free_data0_6 $i5_free_data0_7)) $x1922) $x1925)))
 (let (($x1929 (and $x1926 $x1928)))
 (let (($x1915 (= $p9_free_data0_6 $p9_free_data0_7)))
 (let (($x1912 (= $p9_alloc_data0_6 $p9_alloc_data0_7)))
 (let (($x1909 (= $p8_free_data0_6 $p8_free_data0_7)))
 (let (($x1906 (= $p8_alloc_data0_6 $p8_alloc_data0_7)))
 (let (($x1903 (= $p7_alloc_data0_6 $p7_alloc_data0_7)))
 (let (($x1900 (= $p6_alloc_data0_6 $p6_alloc_data0_7)))
 (let (($x1897 (= $p5_alloc_data0_6 $p5_alloc_data0_7)))
 (let (($x1894 (= $p4_free_data0_6 $p4_free_data0_7)))
 (let (($x1891 (= $p4_alloc_data0_6 $p4_alloc_data0_7)))
 (let (($x1888 (= $p3_free_data0_6 $p3_free_data0_7)))
 (let (($x1885 (= $p3_alloc_data0_6 $p3_alloc_data0_7)))
 (let (($x1882 (= $p2_free_data0_6 $p2_free_data0_7)))
 (let (($x1879 (= $p2_alloc_data0_6 $p2_alloc_data0_7)))
 (let (($x1876 (= $p1_free_data0_6 $p1_free_data0_7)))
 (let (($x1873 (= $p1_alloc_data0_6 $p1_alloc_data0_7)))
 (let (($x1870 (= $p10_alloc_data0_6 $p10_alloc_data0_7)))
 (let (($x1867 (= $p0_main0_6 $p0_main0_7)))
 (let (($x1864 (= $p0_free_data0_6 $p0_free_data0_7)))
 (let (($x1861 (= $p0_alloc_data0_6 $p0_alloc_data0_7)))
 (let (($x1868 (and (and (and (and true (= $0.ref_6 $0.ref_7)) $x1861) $x1864) $x1867)))
 (let (($x1886 (and (and (and (and (and (and $x1868 $x1870) $x1873) $x1876) $x1879) $x1882) $x1885)))
 (let (($x1904 (and (and (and (and (and (and $x1886 $x1888) $x1891) $x1894) $x1897) $x1900) $x1903)))
 (let (($x1916 (and (and (and (and $x1904 $x1906) $x1909) $x1912) $x1915)))
 (let (($x1851 (= H_7 H11_7)))
 (let (($x1848 (= $p11_free_data0_7 $p11_free_data01_7)))
 (let (($x1846 (= $p10_free_data0_7 $p10_free_data01_7)))
 (let (($x1852 (and (and $x1846 $x1848) $x1851)))
 (let (($x2274 (and $x1852 true)))
 (let (($x1801 (= H11_7 (uplus h25_7 (pt $p11_free_data01_7 (Pt_R_0 nil))))))
 (let (($x1805 (= H10_7 (uplus h25_7 (pt $p11_free_data01_7 (Pt_R_0 l33_7))))))
 (let (($x1806 (and $x1805 $x1801)))
 (let (($x1818 (= $p11_free_data01_7 (locadd $p0_free_data0_6 1))))
 (let (($x1824 (= H10_7 (uplus h23_7 (pt $p10_free_data01_7 (Pt_R_0 nil))))))
 (let (($x1828 (= H_6 (uplus h23_7 (pt $p10_free_data01_7 (Pt_R_0 l31_7))))))
 (let (($x1829 (and $x1828 $x1824)))
 (let (($x1840 (= $p10_free_data01_7 $p0_free_data0_6)))
 (let (($x2375 (and (and (and (and (and (and $x1840 $x1829) $x1818) $x1806) $x2274) $x1916) $x1929)))
 (let (($x1766 (= loc_6 9)))
 (let (($x1758 (= $r_main0_5 $r_main0_6)))
 (let (($x1755 (= $i7_free_data0_5 $i7_free_data0_6)))
 (let (($x1752 (= $i6_free_data0_5 $i6_free_data0_6)))
 (let (($x1756 (and (and (and true (= $i5_free_data0_5 $i5_free_data0_6)) $x1752) $x1755)))
 (let (($x1759 (and $x1756 $x1758)))
 (let (($x1776 (= $p9_free_data0_5 $p9_free_data0_6)))
 (let (($x1745 (= $p9_alloc_data0_5 $p9_alloc_data0_6)))
 (let (($x1773 (= $p8_free_data0_5 $p8_free_data0_6)))
 (let (($x1742 (= $p8_alloc_data0_5 $p8_alloc_data0_6)))
 (let (($x1739 (= $p7_alloc_data0_5 $p7_alloc_data0_6)))
 (let (($x1736 (= $p6_alloc_data0_5 $p6_alloc_data0_6)))
 (let (($x1733 (= $p5_alloc_data0_5 $p5_alloc_data0_6)))
 (let (($x1730 (= $p4_free_data0_5 $p4_free_data0_6)))
 (let (($x1727 (= $p4_alloc_data0_5 $p4_alloc_data0_6)))
 (let (($x1724 (= $p3_free_data0_5 $p3_free_data0_6)))
 (let (($x1721 (= $p3_alloc_data0_5 $p3_alloc_data0_6)))
 (let (($x1718 (= $p2_free_data0_5 $p2_free_data0_6)))
 (let (($x1715 (= $p2_alloc_data0_5 $p2_alloc_data0_6)))
 (let (($x1712 (= $p1_free_data0_5 $p1_free_data0_6)))
 (let (($x1709 (= $p1_alloc_data0_5 $p1_alloc_data0_6)))
 (let (($x1706 (= $p11_free_data0_5 $p11_free_data0_6)))
 (let (($x1703 (= $p10_free_data0_5 $p10_free_data0_6)))
 (let (($x1700 (= $p10_alloc_data0_5 $p10_alloc_data0_6)))
 (let (($x1697 (= $p0_main0_5 $p0_main0_6)))
 (let (($x1694 (= $p0_free_data0_5 $p0_free_data0_6)))
 (let (($x1691 (= $p0_alloc_data0_5 $p0_alloc_data0_6)))
 (let (($x1698 (and (and (and (and true (= $0.ref_5 $0.ref_6)) $x1691) $x1694) $x1697)))
 (let (($x1716 (and (and (and (and (and (and $x1698 $x1700) $x1703) $x1706) $x1709) $x1712) $x1715)))
 (let (($x1734 (and (and (and (and (and (and $x1716 $x1718) $x1721) $x1724) $x1727) $x1730) $x1733)))
 (let (($x1743 (and (and (and $x1734 $x1736) $x1739) $x1742)))
 (let (($x1777 (and (and (and $x1743 $x1773) $x1745) $x1776)))
 (let (($x2366 (and (and (and (and (not (= $i7_free_data0_5 1)) $x1771) $x1777) $x1759) $x1766)))
 (let (($x1550 (= loc_5 8)))
 (let (($x1746 (and $x1743 $x1745)))
 (let (($x1683 (= H_6 H9_6)))
 (let (($x1680 (= AH_6 AH5_6)))
 (let (($x1677 (= $p9_free_data0_6 $p9_free_data01_6)))
 (let (($x1675 (= $p8_free_data0_6 $p8_free_data01_6)))
 (let (($x1684 (and (and (and $x1675 $x1677) $x1680) $x1683)))
 (let (($x1685 (and $x1684 true)))
 (let (($x1582 (= H9_6 h22_6)))
 (let (($x1583 (= $p9_free_data01_6 l30_6)))
 (let (($x1587 (= H8_6 (uplus h22_6 (pt l30_6 (Pt_R_1 d17_6))))))
 (let (($x1590 (= d15_6 1)))
 (let (($x1592 (= $p9_free_data01_6 l29_6)))
 (let (($x1596 (= H8_6 (uplus h22_6 (pt l29_6 (Pt_R_1 d16_6))))))
 (let (($x1599 (= d15_6 3)))
 (let (($x1601 (= $p9_free_data01_6 l25_6)))
 (let ((?x1607 (uplus h22_6 (uplus (pt l25_6 (Pt_R_0 l26_6)) (pt l27_6 (Pt_R_0 l28_6))))))
 (let (($x1608 (= H8_6 ?x1607)))
 (let (($x1611 (= d15_6 2)))
 (let (($x1613 (and (=> $x1611 (and (and $x1608 $x1601) $x1582)) (=> $x1599 (and (and $x1596 $x1592) $x1582)))))
 (let (($x1615 (= AH5_6 ah3)))
 (let (($x1619 (= AH4_6 (uplus ah3 (pt $p9_free_data01_6 (Pt_R_1 d15_6))))))
 (let (($x1621 (and (and $x1619 $x1615) (and $x1613 (=> $x1590 (and (and $x1587 $x1583) $x1582))))))
 (let (($x1623 (= $p9_free_data01_6 $p4_free_data0_5)))
 (let (($x1625 (= H8_6 h21_6)))
 (let (($x1626 (= $p8_free_data01_6 l24_6)))
 (let (($x1630 (= H_5 (uplus h21_6 (pt l24_6 (Pt_R_1 d13_6))))))
 (let (($x1633 (= d11_6 1)))
 (let (($x1635 (= $p8_free_data01_6 l23_6)))
 (let (($x1639 (= H_5 (uplus h21_6 (pt l23_6 (Pt_R_1 d12_6))))))
 (let (($x1642 (= d11_6 3)))
 (let (($x1644 (= $p8_free_data01_6 l19_6)))
 (let ((?x1650 (uplus h21_6 (uplus (pt l19_6 (Pt_R_0 l20_6)) (pt l21_6 (Pt_R_0 l22_6))))))
 (let (($x1651 (= H_5 ?x1650)))
 (let (($x1654 (= d11_6 2)))
 (let (($x1656 (and (=> $x1654 (and (and $x1651 $x1644) $x1625)) (=> $x1642 (and (and $x1639 $x1635) $x1625)))))
 (let (($x1658 (= AH4_6 ah1)))
 (let (($x1662 (= AH_5 (uplus ah1 (pt $p8_free_data01_6 (Pt_R_1 d11_6))))))
 (let (($x1664 (and (and $x1662 $x1658) (and $x1656 (=> $x1633 (and (and $x1630 $x1626) $x1625))))))
 (let (($x1666 (= $p8_free_data01_6 $p2_free_data0_5)))
 (let (($x1668 (= $i7_free_data0_5 1)))
 (let (($x2359 (and (and (and (and (and (and $x1668 $x1666) $x1664) $x1623) $x1621) $x1685) $x1746)))
 (let (($x1546 (= $r_main0_4 $r_main0_5)))
 (let (($x1547 (and true $x1546)))
 (let (($x1542 (= $p9_free_data0_4 $p9_free_data0_5)))
 (let (($x1539 (= $p9_alloc_data0_4 $p9_alloc_data0_5)))
 (let (($x1536 (= $p8_free_data0_4 $p8_free_data0_5)))
 (let (($x1533 (= $p8_alloc_data0_4 $p8_alloc_data0_5)))
 (let (($x1530 (= $p7_alloc_data0_4 $p7_alloc_data0_5)))
 (let (($x1527 (= $p6_alloc_data0_4 $p6_alloc_data0_5)))
 (let (($x1524 (= $p5_alloc_data0_4 $p5_alloc_data0_5)))
 (let (($x1521 (= $p4_alloc_data0_4 $p4_alloc_data0_5)))
 (let (($x1518 (= $p3_alloc_data0_4 $p3_alloc_data0_5)))
 (let (($x1515 (= $p2_alloc_data0_4 $p2_alloc_data0_5)))
 (let (($x1512 (= $p1_alloc_data0_4 $p1_alloc_data0_5)))
 (let (($x1509 (= $p11_free_data0_4 $p11_free_data0_5)))
 (let (($x1506 (= $p10_free_data0_4 $p10_free_data0_5)))
 (let (($x1503 (= $p10_alloc_data0_4 $p10_alloc_data0_5)))
 (let (($x1500 (= $p0_main0_4 $p0_main0_5)))
 (let (($x1497 (= $p0_free_data0_4 $p0_free_data0_5)))
 (let (($x1494 (= $p0_alloc_data0_4 $p0_alloc_data0_5)))
 (let (($x1501 (and (and (and (and true (= $0.ref_4 $0.ref_5)) $x1494) $x1497) $x1500)))
 (let (($x1519 (and (and (and (and (and (and $x1501 $x1503) $x1506) $x1509) $x1512) $x1515) $x1518)))
 (let (($x1537 (and (and (and (and (and (and $x1519 $x1521) $x1524) $x1527) $x1530) $x1533) $x1536)))
 (let (($x1543 (and (and $x1537 $x1539) $x1542)))
 (let (($x1484 (= $p4_free_data0_5 $p4_free_data01_5)))
 (let (($x1481 (= $p3_free_data0_5 $p3_free_data01_5)))
 (let (($x1478 (= $p2_free_data0_5 $p2_free_data01_5)))
 (let (($x1475 (= $p1_free_data0_5 $p1_free_data01_5)))
 (let (($x1472 (= $i7_free_data0_5 $i7_free_data01_5)))
 (let (($x1469 (= $i6_free_data0_5 $i6_free_data01_5)))
 (let (($x1467 (= $i5_free_data0_5 $i5_free_data01_5)))
 (let (($x1485 (and (and (and (and (and (and $x1467 $x1469) $x1472) $x1475) $x1478) $x1481) $x1484)))
 (let (($x2206 (and $x1485 true)))
 (let (($x1375 (= $i7_free_data01_5 0)))
 (let (($x1379 (= $i7_free_data01_5 1)))
 (let (($x1376 (>= $i5_free_data01_5 $i6_free_data01_5)))
 (let (($x1381 (or (and $x1376 $x1379) (and (not $x1376) $x1375))))
 (let (($x1385 (= $i6_free_data01_5 d9_5)))
 (let (($x1389 (= H_4 (uplus h19_5 (pt $p4_free_data01_5 (Pt_R_1 d9_5))))))
 (let (($x1390 (and $x1389 $x1385)))
 (let (($x1403 (= $i5_free_data01_5 d7_5)))
 (let (($x1407 (= H_4 (uplus h17_5 (pt $p2_free_data01_5 (Pt_R_1 d7_5))))))
 (let (($x1408 (and $x1407 $x1403)))
 (let (($x1421 (= $p4_free_data01_5 l13_5)))
 (let (($x1425 (= H_4 (uplus h15_5 (pt $p3_free_data01_5 (Pt_R_0 l13_5))))))
 (let (($x1426 (and $x1425 $x1421)))
 (let (($x1438 (= $p3_free_data01_5 (locadd $p0_free_data0_4 1))))
 (let (($x1442 (= $p2_free_data01_5 l11_5)))
 (let (($x1446 (= H_4 (uplus h13_5 (pt $p1_free_data01_5 (Pt_R_0 l11_5))))))
 (let (($x1447 (and $x1446 $x1442)))
 (let (($x1458 (= $p1_free_data01_5 $p0_free_data0_4)))
 (let (($x2347 (and (and (and (and (and (and $x1458 $x1447) $x1438) $x1426) $x1408) $x1390) $x1381)))
 (let (($x1343 (= loc_4 4)))
 (let (($x1336 (= $r_main0_3 $r_main0_4)))
 (let (($x1333 (= $i7_free_data0_3 $i7_free_data0_4)))
 (let (($x1330 (= $i6_free_data0_3 $i6_free_data0_4)))
 (let (($x1334 (and (and (and true (= $i5_free_data0_3 $i5_free_data0_4)) $x1330) $x1333)))
 (let (($x1337 (and $x1334 $x1336)))
 (let (($x1323 (= $p9_free_data0_3 $p9_free_data0_4)))
 (let (($x1320 (= $p9_alloc_data0_3 $p9_alloc_data0_4)))
 (let (($x1317 (= $p8_free_data0_3 $p8_free_data0_4)))
 (let (($x1314 (= $p8_alloc_data0_3 $p8_alloc_data0_4)))
 (let (($x1311 (= $p7_alloc_data0_3 $p7_alloc_data0_4)))
 (let (($x1308 (= $p6_alloc_data0_3 $p6_alloc_data0_4)))
 (let (($x1305 (= $p5_alloc_data0_3 $p5_alloc_data0_4)))
 (let (($x1302 (= $p4_free_data0_3 $p4_free_data0_4)))
 (let (($x1299 (= $p4_alloc_data0_3 $p4_alloc_data0_4)))
 (let (($x1296 (= $p3_free_data0_3 $p3_free_data0_4)))
 (let (($x1293 (= $p3_alloc_data0_3 $p3_alloc_data0_4)))
 (let (($x1290 (= $p2_free_data0_3 $p2_free_data0_4)))
 (let (($x1287 (= $p2_alloc_data0_3 $p2_alloc_data0_4)))
 (let (($x1284 (= $p1_free_data0_3 $p1_free_data0_4)))
 (let (($x1281 (= $p1_alloc_data0_3 $p1_alloc_data0_4)))
 (let (($x1278 (= $p11_free_data0_3 $p11_free_data0_4)))
 (let (($x1275 (= $p10_free_data0_3 $p10_free_data0_4)))
 (let (($x1272 (= $p10_alloc_data0_3 $p10_alloc_data0_4)))
 (let (($x1269 (= $p0_main0_3 $p0_main0_4)))
 (let (($x1266 (= $p0_alloc_data0_3 $p0_alloc_data0_4)))
 (let (($x1273 (and (and (and (and true (= $0.ref_3 $0.ref_4)) $x1266) $x1269) $x1272)))
 (let (($x1291 (and (and (and (and (and (and $x1273 $x1275) $x1278) $x1281) $x1284) $x1287) $x1290)))
 (let (($x1309 (and (and (and (and (and (and $x1291 $x1293) $x1296) $x1299) $x1302) $x1305) $x1308)))
 (let (($x1324 (and (and (and (and (and $x1309 $x1311) $x1314) $x1317) $x1320) $x1323)))
 (let (($x1259 (= $p0_free_data0_4 $p0_free_data01_4)))
 (let (($x1260 (and $x1259 true)))
 (let (($x1256 (= $p0_free_data01_4 $p0_main0_3)))
 (let (($x1251 (= loc_3 3)))
 (let (($x1247 (= $r_main0_2 $r_main0_3)))
 (let (($x1244 (= $i7_free_data0_2 $i7_free_data0_3)))
 (let (($x1241 (= $i6_free_data0_2 $i6_free_data0_3)))
 (let (($x1245 (and (and (and true (= $i5_free_data0_2 $i5_free_data0_3)) $x1241) $x1244)))
 (let (($x1248 (and $x1245 $x1247)))
 (let (($x1234 (= $p9_free_data0_2 $p9_free_data0_3)))
 (let (($x1231 (= $p8_free_data0_2 $p8_free_data0_3)))
 (let (($x1228 (= $p4_free_data0_2 $p4_free_data0_3)))
 (let (($x1225 (= $p3_free_data0_2 $p3_free_data0_3)))
 (let (($x1222 (= $p2_free_data0_2 $p2_free_data0_3)))
 (let (($x1219 (= $p1_free_data0_2 $p1_free_data0_3)))
 (let (($x1216 (= $p11_free_data0_2 $p11_free_data0_3)))
 (let (($x1213 (= $p10_free_data0_2 $p10_free_data0_3)))
 (let (($x1210 (= $p0_main0_2 $p0_main0_3)))
 (let (($x1207 (= $p0_free_data0_2 $p0_free_data0_3)))
 (let (($x1204 (= $p0_alloc_data0_2 $p0_alloc_data0_3)))
 (let (($x1211 (and (and (and (and true (= $0.ref_2 $0.ref_3)) $x1204) $x1207) $x1210)))
 (let (($x1229 (and (and (and (and (and (and $x1211 $x1213) $x1216) $x1219) $x1222) $x1225) $x1228)))
 (let (($x1235 (and (and $x1229 $x1231) $x1234)))
 (let (($x1194 (= H_3 H6_3)))
 (let (($x1191 (= AH_3 AH2_3)))
 (let (($x1188 (= $p9_alloc_data0_3 $p9_alloc_data01_3)))
 (let (($x1185 (= $p8_alloc_data0_3 $p8_alloc_data01_3)))
 (let (($x1182 (= $p7_alloc_data0_3 $p7_alloc_data01_3)))
 (let (($x1179 (= $p6_alloc_data0_3 $p6_alloc_data01_3)))
 (let (($x1176 (= $p5_alloc_data0_3 $p5_alloc_data01_3)))
 (let (($x1173 (= $p4_alloc_data0_3 $p4_alloc_data01_3)))
 (let (($x1170 (= $p3_alloc_data0_3 $p3_alloc_data01_3)))
 (let (($x1167 (= $p2_alloc_data0_3 $p2_alloc_data01_3)))
 (let (($x1164 (= $p1_alloc_data0_3 $p1_alloc_data01_3)))
 (let (($x1162 (= $p10_alloc_data0_3 $p10_alloc_data01_3)))
 (let (($x1180 (and (and (and (and (and (and $x1162 $x1164) $x1167) $x1170) $x1173) $x1176) $x1179)))
 (let (($x1195 (and (and (and (and (and $x1180 $x1182) $x1185) $x1188) $x1191) $x1194)))
 (let (($x2173 (and $x1195 true)))
 (let (($x999 (= H6_3 (uplus h11_3 (pt $p10_alloc_data01_3 (Pt_R_1 8))))))
 (let (($x1003 (= H5_3 (uplus h11_3 (pt $p10_alloc_data01_3 (Pt_R_1 d5_3))))))
 (let (($x1004 (and $x1003 $x999)))
 (let (($x1017 (= $p10_alloc_data01_3 l9_3)))
 (let (($x1021 (= H5_3 (uplus h9_3 (pt $p9_alloc_data01_3 (Pt_R_0 l9_3))))))
 (let (($x1022 (and $x1021 $x1017)))
 (let ((?x1033 (locadd $p0_alloc_data0_2 1)))
 (let (($x1034 (= $p9_alloc_data01_3 ?x1033)))
 (let (($x1040 (= H5_3 (uplus h7_3 (pt $p8_alloc_data01_3 (Pt_R_1 4))))))
 (let (($x1044 (= H4_3 (uplus h7_3 (pt $p8_alloc_data01_3 (Pt_R_1 d3_3))))))
 (let (($x1045 (and $x1044 $x1040)))
 (let (($x1058 (= $p8_alloc_data01_3 l7_3)))
 (let (($x1062 (= H4_3 (uplus h5_3 (pt $p7_alloc_data01_3 (Pt_R_0 l7_3))))))
 (let (($x1063 (and $x1062 $x1058)))
 (let (($x1074 (= $p7_alloc_data01_3 $p0_alloc_data0_2)))
 (let (($x1081 (= H4_3 (uplus h3_3 (pt $p6_alloc_data01_3 (Pt_R_0 $p4_alloc_data01_3))))))
 (let (($x1085 (= H3_3 (uplus h3_3 (pt $p6_alloc_data01_3 (Pt_R_0 l5_3))))))
 (let (($x1086 (and $x1085 $x1081)))
 (let (($x1097 (= $p6_alloc_data01_3 ?x1033)))
 (let (($x1099 (= $p5_alloc_data01_3 $p4_alloc_data01_3)))
 (let (($x1103 (= AH2_3 (uplus AH1_3 (pt l4_3 (Pt_R_1 4))))))
 (let (($x1104 (= $p4_alloc_data01_3 l4_3)))
 (let (($x1108 (= H3_3 (uplus H2_3 (pt l4_3 (Pt_R_1 d2_3))))))
 (let (($x1110 (and (and $x1108 $x1104) $x1103)))
 (let (($x1117 (= H2_3 (uplus h1_3 (pt $p3_alloc_data01_3 (Pt_R_0 $p1_alloc_data01_3))))))
 (let (($x1121 (= H1_3 (uplus h1_3 (pt $p3_alloc_data01_3 (Pt_R_0 l2_3))))))
 (let (($x1122 (and $x1121 $x1117)))
 (let (($x1133 (= $p3_alloc_data01_3 $p0_alloc_data0_2)))
 (let (($x1135 (= $p2_alloc_data01_3 $p1_alloc_data01_3)))
 (let (($x1139 (= AH1_3 (uplus AH_2 (pt l1_3 (Pt_R_1 3))))))
 (let (($x1140 (= $p1_alloc_data01_3 l1_3)))
 (let (($x1144 (= H1_3 (uplus H_2 (pt l1_3 (Pt_R_1 d1_3))))))
 (let (($x1146 (and (and $x1144 $x1140) $x1139)))
 (let (($x2322 (and (and (and (and (and (and $x1146 $x1135) $x1133) $x1122) $x1110) $x1099) $x1097)))
 (let (($x2328 (and (and (and (and (and (and $x2322 $x1086) $x1074) $x1063) $x1045) $x1034) $x1022)))
 (let (($x941 (= loc_2 2)))
 (let (($x2334 (=> $x941 (and (and (and (and (and $x2328 $x1004) $x2173) $x1235) $x1248) $x1251))))
 (let (($x934 (= $r_main0_1 $r_main0_2)))
 (let (($x931 (= $i7_free_data0_1 $i7_free_data0_2)))
 (let (($x928 (= $i6_free_data0_1 $i6_free_data0_2)))
 (let (($x932 (and (and (and true (= $i5_free_data0_1 $i5_free_data0_2)) $x928) $x931)))
 (let (($x935 (and $x932 $x934)))
 (let (($x921 (= $p9_free_data0_1 $p9_free_data0_2)))
 (let (($x918 (= $p9_alloc_data0_1 $p9_alloc_data0_2)))
 (let (($x915 (= $p8_free_data0_1 $p8_free_data0_2)))
 (let (($x912 (= $p8_alloc_data0_1 $p8_alloc_data0_2)))
 (let (($x909 (= $p7_alloc_data0_1 $p7_alloc_data0_2)))
 (let (($x906 (= $p6_alloc_data0_1 $p6_alloc_data0_2)))
 (let (($x903 (= $p5_alloc_data0_1 $p5_alloc_data0_2)))
 (let (($x900 (= $p4_free_data0_1 $p4_free_data0_2)))
 (let (($x897 (= $p4_alloc_data0_1 $p4_alloc_data0_2)))
 (let (($x894 (= $p3_free_data0_1 $p3_free_data0_2)))
 (let (($x891 (= $p3_alloc_data0_1 $p3_alloc_data0_2)))
 (let (($x888 (= $p2_free_data0_1 $p2_free_data0_2)))
 (let (($x885 (= $p2_alloc_data0_1 $p2_alloc_data0_2)))
 (let (($x882 (= $p1_free_data0_1 $p1_free_data0_2)))
 (let (($x879 (= $p1_alloc_data0_1 $p1_alloc_data0_2)))
 (let (($x876 (= $p11_free_data0_1 $p11_free_data0_2)))
 (let (($x873 (= $p10_free_data0_1 $p10_free_data0_2)))
 (let (($x870 (= $p10_alloc_data0_1 $p10_alloc_data0_2)))
 (let (($x867 (= $p0_main0_1 $p0_main0_2)))
 (let (($x864 (= $p0_free_data0_1 $p0_free_data0_2)))
 (let (($x871 (and (and (and (and true (= $0.ref_1 $0.ref_2)) $x864) $x867) $x870)))
 (let (($x889 (and (and (and (and (and (and $x871 $x873) $x876) $x879) $x882) $x885) $x888)))
 (let (($x907 (and (and (and (and (and (and $x889 $x891) $x894) $x897) $x900) $x903) $x906)))
 (let (($x922 (and (and (and (and (and $x907 $x909) $x912) $x915) $x918) $x921)))
 (let (($x857 (= $p0_alloc_data0_2 $p0_alloc_data01_2)))
 (let (($x858 (and $x857 true)))
 (let (($x854 (= $p0_alloc_data01_2 $p0_main0_1)))
 (let (($x849 (= loc_1 1)))
 (let (($x842 (= $r_main0_0 $r_main0_1)))
 (let (($x838 (= $i7_free_data0_0 $i7_free_data0_1)))
 (let (($x834 (= $i6_free_data0_0 $i6_free_data0_1)))
 (let (($x839 (and (and (and true (= $i5_free_data0_0 $i5_free_data0_1)) $x834) $x838)))
 (let (($x843 (and $x839 $x842)))
 (let (($x825 (= $p9_free_data0_0 $p9_free_data0_1)))
 (let (($x821 (= $p9_alloc_data0_0 $p9_alloc_data0_1)))
 (let (($x817 (= $p8_free_data0_0 $p8_free_data0_1)))
 (let (($x813 (= $p8_alloc_data0_0 $p8_alloc_data0_1)))
 (let (($x809 (= $p7_alloc_data0_0 $p7_alloc_data0_1)))
 (let (($x805 (= $p6_alloc_data0_0 $p6_alloc_data0_1)))
 (let (($x801 (= $p5_alloc_data0_0 $p5_alloc_data0_1)))
 (let (($x797 (= $p4_free_data0_0 $p4_free_data0_1)))
 (let (($x793 (= $p4_alloc_data0_0 $p4_alloc_data0_1)))
 (let (($x789 (= $p3_free_data0_0 $p3_free_data0_1)))
 (let (($x785 (= $p3_alloc_data0_0 $p3_alloc_data0_1)))
 (let (($x781 (= $p2_free_data0_0 $p2_free_data0_1)))
 (let (($x777 (= $p2_alloc_data0_0 $p2_alloc_data0_1)))
 (let (($x773 (= $p1_free_data0_0 $p1_free_data0_1)))
 (let (($x769 (= $p1_alloc_data0_0 $p1_alloc_data0_1)))
 (let (($x765 (= $p11_free_data0_0 $p11_free_data0_1)))
 (let (($x761 (= $p10_free_data0_0 $p10_free_data0_1)))
 (let (($x757 (= $p10_alloc_data0_0 $p10_alloc_data0_1)))
 (let (($x753 (= $p0_free_data0_0 $p0_free_data0_1)))
 (let (($x749 (= $p0_alloc_data0_0 $p0_alloc_data0_1)))
 (let (($x758 (and (and (and (and true (= $0.ref_0 $0.ref_1)) $x749) $x753) $x757)))
 (let (($x782 (and (and (and (and (and (and $x758 $x761) $x765) $x769) $x773) $x777) $x781)))
 (let (($x806 (and (and (and (and (and (and $x782 $x785) $x789) $x793) $x797) $x801) $x805)))
 (let (($x826 (and (and (and (and (and $x806 $x809) $x813) $x817) $x821) $x825)))
 (let (($x739 (= H_1 H7_1)))
 (let (($x741 (and (and (and (= $p0_main0_1 $p0_main01_1) (= AH_1 AH3_1)) $x739) true)))
 (let (($x717 (= AH3_1 (uplus AH_0 (pt l15_1 (Pt_R_1 2))))))
 (let (($x718 (= $p0_main01_1 l15_1)))
 (let (($x720 (= l17_1 (locadd l15_1 1))))
 (let ((?x726 (uplus H_0 (uplus (pt l15_1 (Pt_R_0 l16_1)) (pt l17_1 (Pt_R_0 l18_1))))))
 (let (($x727 (= H7_1 ?x726)))
 (let (($x730 (and (and (and $x727 $x720) $x718) $x717)))
 (let (($x701 (= loc_0 5)))
 (let (($x703 (and (and (= H_0 emp) (= AH_0 emp)) $x701)))
 (let (($x2310 (and $x703 (=> $x701 (and (and (and (and $x730 $x741) $x826) $x843) $x849)))))
 (let (($x2316 (and $x2310 (=> $x849 (and (and (and (and $x854 $x858) $x922) $x935) $x941)))))
 (let (($x2341 (and (and $x2316 $x2334) (=> $x1251 (and (and (and (and $x1256 $x1260) $x1324) $x1337) $x1343)))))
 (let (($x2353 (and $x2341 (=> $x1343 (and (and (and (and $x2347 $x2206) $x1543) $x1547) $x1550)))))
 (let (($x2369 (and $x2353 (and (=> $x1550 (and (and $x2359 $x1759) $x1766)) (=> $x1550 $x2366)))))
 (let (($x2384 (and (and $x2369 (=> $x1766 (and $x2375 $x1933))) (=> $x1933 (and (and (and (and $x1938 $x1942) $x2009) $x2019) $x2026)))))
 (and (and $x2384 (=> $x2026 (and (and (and $x1771 $x2097) $x2110) $x2116))) (and (and $x2116 $x2403) $x2411)))))))))))))))))))))))))))))))))))))))))))))))))))))))))))))))))))))))))))))))))))))))))))))))))))))))))))))))))))))))))))))))))))))))))))))))))))))))))))))))))))))))))))))))))))))))))))))))))))))))))))))))))))))))))))))))))))))))))))))))))))))))))))))))))))))))))))))))))))))))))))))))))))))))))))))))))))))))))))))))))))))))))))))))))))))))))))))))))))))))))))))))))))))))))))))))))))))))))))))))))))))))))))))))))))))
(check-sat)
